Route #1: 1 26 20 27 28 39 40 1
Route #2: 1 5 16 32 23 31 14 9 1
Route #3: 1 25 36 3 10 38 22 19 4 1
Route #4: 1 7 34 12 35 29 18 15 2 1
Route #5: 1 6 37 13 24 11 30 1
Route #6: 1 21 17 41 8 33 1
cost 872.9744729169176
